% seed = 0

mint = 21;
% maxt = 76;

nActs = 32;
dur = [0,2,1,2,5,1,3,1,2,2,4,1,1,2,3,4,2,1,3,3,4,3,4,2,4,4,1,5,2,3,1,0];

nSkills = 12;
sreq = [| 0,0,0,0,0,0,0,0,0,0,0,0,
	| 0,0,1,0,0,0,0,1,2,0,1,1,
	| 0,0,3,0,1,0,0,0,1,0,0,0,
	| 0,0,1,0,0,0,1,0,1,0,2,0,
	| 0,0,0,0,0,2,1,0,1,0,2,0,
	| 0,1,1,0,0,1,0,0,2,0,1,0,
	| 0,0,1,0,0,0,1,0,0,0,2,0,
	| 0,0,0,0,0,0,1,0,0,0,0,0,
	| 0,0,1,0,0,1,0,1,1,0,0,1,
	| 1,0,0,0,0,0,0,0,0,0,2,2,
	| 0,1,0,0,0,0,0,0,1,0,0,1,
	| 0,1,0,0,0,2,0,1,0,0,1,0,
	| 0,0,0,0,1,0,0,1,1,0,2,0,
	| 0,0,1,0,0,1,1,1,0,0,1,1,
	| 0,2,0,1,0,2,0,1,0,0,0,0,
	| 0,1,0,0,0,0,2,0,0,0,1,1,
	| 0,1,1,0,0,1,0,2,0,0,1,0,
	| 0,0,0,0,0,0,0,0,1,0,0,0,
	| 0,1,2,0,0,0,0,0,0,0,1,0,
	| 0,0,0,0,0,0,0,1,0,0,0,0,
	| 0,0,0,0,0,1,1,0,0,0,0,0,
	| 0,0,0,0,1,1,0,0,1,0,1,1,
	| 0,0,1,0,0,2,0,0,1,1,0,1,
	| 0,0,1,0,0,0,3,0,1,0,0,0,
	| 0,0,0,0,0,0,0,1,1,0,1,1,
	| 0,0,0,0,0,1,0,0,1,0,2,0,
	| 0,1,0,0,0,0,1,0,1,0,1,0,
	| 0,0,0,0,0,0,0,0,0,0,1,0,
	| 0,1,0,0,0,0,0,0,0,0,1,0,
	| 0,0,0,0,0,0,0,1,0,0,0,1,
	| 0,0,1,0,0,1,1,0,2,0,0,1,
	| 0,0,0,0,0,0,0,0,0,0,0,0, |];

% SumOfsreq = 126;

nResources = 18;
mastery = [| false,false,false,false,false,false,false,false,false,false,true,true,
	| false,false,false,false,false,false,false,false,false,false,false,true,
	| false,false,false,false,false,false,true,true,true,false,false,false,
	| false,false,false,false,false,false,true,true,true,false,true,true,
	| false,false,false,false,false,false,false,false,false,false,true,true,
	| false,false,true,true,true,true,false,false,false,false,false,false,
	| false,true,true,false,false,false,false,false,false,true,true,true,
	| false,false,true,false,false,false,false,false,false,false,false,false,
	| false,false,false,false,false,false,true,true,true,false,false,false,
	| false,false,false,false,false,false,true,true,true,false,false,false,
	| false,false,false,false,false,false,false,false,false,false,true,true,
	| false,false,false,false,false,false,true,true,true,false,false,false,
	| true,true,true,false,false,false,false,false,true,false,false,false,
	| false,false,false,false,false,false,false,false,false,false,false,true,
	| false,false,false,false,false,true,false,false,false,false,false,false,
	| false,false,false,false,true,true,false,false,false,false,false,true,
	| false,true,true,false,false,false,false,false,false,false,false,false,
	| false,false,false,false,false,false,false,false,false,false,false,true, |];

nPrecs = 68;
pred = [1,1,1,2,2,2,3,3,3,4,4,4,5,5,5,6,6,6,7,7,7,8,8,8,9,9,9,10,10,10,11,11,11,12,12,12,13,13,14,14,14,15,15,15,16,16,16,17,17,17,18,19,20,20,20,21,21,22,23,23,24,25,26,27,28,29,30,31];
succ = [2,3,4,10,6,15,12,6,7,13,5,23,25,28,22,11,14,8,9,17,15,17,30,16,10,18,16,26,19,13,18,13,21,20,21,16,27,24,25,19,20,27,20,23,25,19,28,18,31,26,28,31,29,22,24,22,23,30,26,24,30,27,29,31,29,32,32,32];

nUnrels = 213;
unpred = [2,2,2,2,2,2,3,3,4,4,4,4,4,4,4,4,4,4,4,4,4,4,4,5,5,5,5,5,5,5,5,5,5,5,5,5,5,5,5,5,5,5,6,6,6,6,6,7,7,7,7,7,8,8,8,8,8,8,8,8,8,8,8,8,9,9,9,9,9,9,9,9,9,10,10,10,10,10,10,10,10,10,10,10,10,10,11,11,11,11,11,11,11,11,12,12,12,12,12,13,13,13,13,13,13,13,13,13,13,13,13,13,13,14,14,14,14,14,14,14,14,15,15,15,15,15,15,15,16,16,16,16,16,16,16,16,16,17,17,17,17,17,17,17,17,17,18,18,18,18,18,18,18,18,18,18,18,19,19,19,19,19,19,19,19,19,19,19,20,20,20,20,20,20,20,21,21,21,21,22,22,22,22,22,22,22,22,23,23,23,23,24,24,24,24,24,24,25,25,25,25,26,26,26,26,27,27,27,28,28,29,29,30];
unsucc = [3,4,5,7,9,12,4,5,6,7,8,9,10,11,12,14,15,16,17,18,19,20,21,6,7,8,9,10,11,12,13,14,15,16,17,18,19,20,21,23,24,26,7,9,10,12,15,8,11,12,14,21,9,10,11,12,13,14,15,20,21,22,23,24,11,12,14,15,17,20,21,22,23,11,12,14,15,16,17,18,20,21,22,23,25,28,12,14,15,16,17,19,20,25,13,14,15,17,18,14,15,16,17,18,19,20,21,22,23,25,26,28,29,15,16,17,18,21,23,26,28,16,17,18,19,21,25,28,17,18,20,21,22,23,24,26,30,19,20,21,22,23,24,25,27,30,19,20,21,22,23,24,25,26,27,30,31,20,21,22,23,24,25,26,27,28,29,30,21,23,25,26,27,28,31,25,27,28,31,23,24,25,26,27,28,29,31,25,27,28,31,25,26,27,28,29,31,26,28,29,30,27,28,30,31,28,29,30,30,31,30,31,31];

USEFUL_RES = [{},
	{1,2,3,4,5,6,7,8,9,10,11,12,13,14,16,17,18},
	{3,4,6,7,8,9,10,12,13,16,17},
	{1,3,4,5,6,7,8,9,10,11,12,13,17},
	{1,3,4,5,6,7,9,10,11,12,13,15,16},
	{1,3,4,5,6,7,8,9,10,11,12,13,15,16,17},
	{1,3,4,5,6,7,8,9,10,11,12,13,17},
	{3,4,9,10,12},
	{1,2,3,4,5,6,7,8,9,10,11,12,13,14,15,16,17,18},
	{1,2,4,5,7,11,13,14,16,18},
	{1,2,3,4,5,7,9,10,11,12,13,14,16,17,18},
	{1,3,4,5,6,7,9,10,11,12,13,15,16,17},
	{1,3,4,5,6,7,9,10,11,12,13,16},
	{1,2,3,4,5,6,7,8,9,10,11,12,13,14,15,16,17,18},
	{3,4,6,7,9,10,12,13,15,16,17},
	{1,2,3,4,5,7,9,10,11,12,13,14,16,17,18},
	{1,3,4,5,6,7,8,9,10,11,12,13,15,16,17},
	{3,4,9,10,12,13},
	{1,4,5,6,7,8,11,13,17},
	{3,4,9,10,12},
	{3,4,6,9,10,12,15,16},
	{1,2,3,4,5,6,7,9,10,11,12,13,14,15,16,18},
	{1,2,3,4,5,6,7,8,9,10,11,12,13,14,15,16,17,18},
	{3,4,6,7,8,9,10,12,13,17},
	{1,2,3,4,5,7,9,10,11,12,13,14,16,18},
	{1,3,4,5,6,7,9,10,11,12,13,15,16},
	{1,3,4,5,7,9,10,11,12,13,17},
	{1,4,5,7,11},
	{1,4,5,7,11,13,17},
	{1,2,3,4,5,7,9,10,11,12,14,16,18},
	{1,2,3,4,5,6,7,8,9,10,11,12,13,14,15,16,17,18},
	{}];

POTENTIAL_ACT = [{2,4,5,6,7,9,10,11,12,13,14,16,17,19,22,23,25,26,27,28,29,30,31},
	{2,9,10,11,14,16,22,23,25,30,31},
	{2,3,4,5,6,7,8,9,11,12,13,14,15,16,17,18,20,21,22,23,24,25,26,27,30,31},
	{2,3,4,5,6,7,8,9,10,11,12,13,14,15,16,17,18,19,20,21,22,23,24,25,26,27,28,29,30,31},
	{2,4,5,6,7,9,10,11,12,13,14,16,17,19,22,23,25,26,27,28,29,30,31},
	{2,3,4,5,6,7,9,12,13,14,15,17,19,21,22,23,24,26,31},
	{2,3,4,5,6,7,9,10,11,12,13,14,15,16,17,19,22,23,24,25,26,27,28,29,30,31},
	{2,3,4,6,7,9,14,17,19,23,24,31},
	{2,3,4,5,6,7,8,9,11,12,13,14,15,16,17,18,20,21,22,23,24,25,26,27,30,31},
	{2,3,4,5,6,7,8,9,11,12,13,14,15,16,17,18,20,21,22,23,24,25,26,27,30,31},
	{2,4,5,6,7,9,10,11,12,13,14,16,17,19,22,23,25,26,27,28,29,30,31},
	{2,3,4,5,6,7,8,9,11,12,13,14,15,16,17,18,20,21,22,23,24,25,26,27,30,31},
	{2,3,4,5,6,7,9,10,11,12,13,14,15,16,17,18,19,22,23,24,25,26,27,29,31},
	{2,9,10,11,14,16,22,23,25,30,31},
	{5,6,9,12,14,15,17,21,22,23,26,31},
	{2,3,5,6,9,10,11,12,13,14,15,16,17,21,22,23,25,26,30,31},
	{2,3,4,6,7,9,11,12,14,15,16,17,19,23,24,27,29,31},
	{2,9,10,11,14,16,22,23,25,30,31}];
